Minimize
  2.8861366825000001e+06 x0 + 5.3134846966666663e+06 x1
   + 4.08017638375e+06 x2 + 4.7427490874999994e+06 x3
   + 4.6365726212499999e+06 x4 + 4.6941790920833331e+06 x5
   + 4.8118744979166668e+06 x6 + 823799.9366666668 x7
   + 5.0676384937499994e+06 x8 + 5.0752626533333333e+06 x9
   + 5.1084342758333338e+06 x10 + 4.7406061120833335e+06 x11
   + 5.5582667562500006e+06 x12 + 4.2064869483333332e+06 x13
   + 4.5716364954166664e+06 x14 + 4.9200473141666669e+06 x15
   + 4.6255749495833339e+06 x16 + 4.538388524166666e+06 x17
   + 4.1376008670833334e+06 x18 + 4.6093956558333337e+06 x19
   + 4.9875286291666664e+06 x20 + 4.0989100195833333e+06 x21
   + 4.1871205533333328e+06 x22 + 5.1784619575000014e+06 x23
   + 3.6976073841666672e+06 x24 + 4.7546724308333341e+06 x25
   + 3.7584509916666672e+06 x26 + 1.5125956700000002e+06 x27
   + 4.5695990545833325e+06 x28 + 4.5628310458333325e+06 x29
   + 4.6814501591666676e+06 x30 + 4.7783433083333345e+06 x31
   + 4.8351259858333329e+06 x32 + 5.1015590249999994e+06 x33
   + 1.9804911945833329e+06 x34 + 5.4943639958333336e+06 x35
   + 4.688137967083334e+06 x36 + 4.6474927666666675e+06 x37
   + 4.7149306812500004e+06 x38 + 3.8141297858333341e+06 x39
   + 4.4678142408333337e+06 x40 + 4.7674358525e+06 x41
   + 5.1276008816666668e+06 x42 + 4.5164430008333325e+06 x43
   + 3.9175950716666663e+06 x44 + 3.0451199070833335e+06 x45
   + 3.9544615241666669e+06 x46 + 4.8198292954166671e+06 x47
   + 5.1630109683333337e+06 x48 + 5.1215980820833342e+06 x49
   + 4.9016461845833333e+06 x50 + 5.1073907625000002e+06 x51
   + 4.6255535762499999e+06 x52 + 5.0535723554166676e+06 x53
   + 4.865555717083334e+06 x54 + 4.7715980350000001e+06 x55
   + 4.7202426262500007e+06 x56 + 4.561770276250001e+06 x57
   + 4.8457158583333325e+06 x58 + 4.7692561654166663e+06 x59
   + 4.9682723808333324e+06 x60 + 4.2346323774999995e+06 x61
   + 4.9731286658333335e+06 x62 + 5.0827285991666671e+06 x63
   + 4.6053618041666672e+06 x64 + 4.4890136341666672e+06 x65
   + 3.0001343125e+06 x66 + 910914.2583333332 x67
   + 4.4678142408333337e+06 x68 + 4.7674358525e+06 x69
   + 5.1263312937500002e+06 x70 + 3.2345815466666669e+06 x71
   + 5.0243801412500003e+06 x72 + 4.7562204487499995e+06 x73
   + 4.6088142787500005e+06 x74 + 3.7411338104166673e+06 x75
   + 3.9175950716666663e+06 x76 + 3.0451199070833335e+06 x77
   + 3.9544615241666669e+06 x78 + 4.9016461845833333e+06 x79
   + 5.1073907625000002e+06 x80 + 4.6255535762499999e+06 x81
   + 5.0535723554166676e+06 x82 + 4.865555717083334e+06 x83
   + 4.7715980350000001e+06 x84 + 4.7202426262500007e+06 x85
   + 4.561770276250001e+06 x86 + 623978.6441666667 x87
   + 4.508199788333334e+06 x88 + 4.4948597233333346e+06 x89
   + 5.1194271137500005e+06 x90 + 4.9653219733333336e+06 x91
   + 3.3945015508333333e+06 x92 + 4.8987835512500005e+06 x93
   + 4.6866237275e+06 x94 + 4.7288408587500015e+06 x95
   + 4.6931286549999984e+06 x96 + 3.1900409341666666e+06 x97
   + 4.7546724308333341e+06 x98 + 4.634568370000001e+06 x99
   + 4.3148909966666671e+06 x100 + 5.1488545987500008e+06 x101
   + 910914.2583333332 x102 + 4.4678142408333337e+06 x103
   + 4.7674358525e+06 x104 + 5.1263312937500002e+06 x105
   + 3.2345815466666669e+06 x106 + 5.0243801412500003e+06 x107
   + 4.7562204487499995e+06 x108 + 4.6088142787500005e+06 x109
   + 3.7411338104166673e+06 x110 + 3.9175950716666663e+06 x111
   + 3.0451199070833335e+06 x112 + 3.9544615241666669e+06 x113
   + 4.9016461845833333e+06 x114 + 5.1073907625000002e+06 x115
   + 4.6255535762499999e+06 x116 + 5.0535723554166676e+06 x117
   + 4.865555717083334e+06 x118 + 4.7715980350000001e+06 x119
   + 4.7202426262500007e+06 x120 + 4.561770276250001e+06 x121
   + 623978.6441666667 x122 + 4.508199788333334e+06 x123
   + 4.4948597233333346e+06 x124 + 5.1194271137500005e+06 x125
   + 4.9653219733333336e+06 x126 + 4.4189493345833337e+06 x127
   + 5.2823306170833334e+06 x128 + 4.6053618041666672e+06 x129
   + 1.6224908791666669e+06 x130 + 4.7725071062500011e+06 x131
   + 4.9731286658333335e+06 x132 + 4.6255960837500002e+06 x133
   + 4.759332300416667e+06 x134 + 4.6177873208333338e+06 x135
   + 4.6092446504166666e+06 x136 + 910914.2583333332 x137
   + 5.1059947883333331e+06 x138 + 4.7674358525e+06 x139
   + 1.9049381570833335e+06 x140 + 3.6467042287499998e+06 x141
   + 4.0579996087500001e+06 x142 + 4.742317114583334e+06 x143
   + 4.6520470562499994e+06 x144 + 4.6554567191666663e+06 x145
   + 3.9076847262500003e+06 x146 + 5.0243801412500003e+06 x147
   + 4.7562204487499995e+06 x148 + 4.6088142787500005e+06 x149
   + 3.7411338104166673e+06 x150 + 3.9175950716666663e+06 x151
   + 3.0451199070833335e+06 x152 + 3.9544615241666669e+06 x153
   + 4.9016461845833333e+06 x154 + 5.1073907625000002e+06 x155
   + 4.6255535762499999e+06 x156 + 5.0535723554166676e+06 x157
   + 4.865555717083334e+06 x158 + 4.7715980350000001e+06 x159
   + 4.7202426262500007e+06 x160 + 4.561770276250001e+06 x161
   + 623978.6441666667 x162 + 4.508199788333334e+06 x163
   + 4.4948597233333346e+06 x164 + 5.1194271137500005e+06 x165
   + 4.9653219733333336e+06 x166 + 3.3945015508333333e+06 x167
   + 4.6243478866666676e+06 x168 + 1.6235834783333335e+06 x169
   + 4.8139654633333329e+06 x170 + 4.9620116966666663e+06 x171
   + 4.83492157125e+06 x172
Subject To
 c_0: x14 + x52 + x81 + x116 + x156 >= 1
 c_1: x24 + x64 + x97 + x129 + x168 >= 1
 c_2: x4 + x36 + x95 + x135 + x144 >= 1
 c_3: x6 + x38 + x93 + x133 + x146 >= 1
 c_4: x16 + x45 + x77 + x112 + x152 >= 1
 c_5: x25 + x64 + x98 + x129 + x168 >= 1
 c_6: x24 + x63 + x97 + x128 + x172 >= 1
 c_7: x9 + x42 + x74 + x109 + x149 >= 1
 c_8: x10 + x49 + x91 + x126 + x166 >= 1
 c_9: x22 + x62 + x100 + x132 + x171 >= 1
 c_10: x9 + x47 + x89 + x124 + x164 >= 1
 c_11: x11 + x49 + x90 + x125 + x165 >= 1
 c_12: x5 + x37 + x96 + x136 + x145 >= 1
 c_13: x11 + x50 + x79 + x114 + x154 >= 1
 c_14: x21 + x61 + x92 + x127 + x167 >= 1
 c_15: x12 + x50 + x79 + x114 + x154 >= 1
 c_16: x6 + x38 + x93 + x133 + x146 >= 1
 c_17: x29 + x56 + x85 + x120 + x160 >= 1
 c_18: x21 + x60 + x91 + x126 + x166 >= 1
 c_19: x15 + x42 + x70 + x105 + x140 >= 1
 c_20: x32 + x54 + x83 + x118 + x158 >= 1
 c_21: x26 + x65 + x88 + x123 + x163 >= 1
 c_22: x33 + x53 + x82 + x117 + x157 >= 1
 c_23: x10 + x48 + x90 + x125 + x165 >= 1
 c_24: x21 + x61 + x99 + x131 + x170 >= 1
 c_25: x32 + x54 + x83 + x118 + x158 >= 1
 c_26: x9 + x47 + x89 + x124 + x164 >= 1
 c_27: x32 + x53 + x82 + x117 + x157 >= 1
 c_28: x5 + x38 + x93 + x134 + x145 >= 1
 c_29: x18 + x58 + x87 + x122 + x162 >= 1
 c_30: x29 + x57 + x86 + x121 + x161 >= 1
 c_31: x17 + x43 + x75 + x110 + x150 >= 1
 c_32: x29 + x45 + x77 + x112 + x152 >= 1
 c_33: x22 + x61 + x99 + x131 + x170 >= 1
 c_34: x26 + x65 + x99 + x131 + x170 >= 1
 c_35: x26 + x65 + x99 + x131 + x170 >= 1
 c_36: x2 + x35 + x94 + x128 + x143 >= 1
 c_37: x9 + x47 + x89 + x124 + x164 >= 1
 c_38: x3 + x35 + x94 + x128 + x143 >= 1
 c_39: x4 + x37 + x96 + x136 + x145 >= 1
 c_40: x5 + x37 + x96 + x136 + x145 >= 1
 c_41: x4 + x37 + x94 + x136 + x144 >= 1
 c_42: x30 + x55 + x84 + x119 + x159 >= 1
 c_43: x28 + x46 + x78 + x113 + x153 >= 1
 c_44: x12 + x51 + x80 + x115 + x155 >= 1
 c_45: x31 + x55 + x84 + x119 + x159 >= 1
 c_46: x3 + x35 + x95 + x134 + x143 >= 1
 c_47: x31 + x56 + x85 + x120 + x160 >= 1
 c_48: x11 + x49 + x90 + x125 + x165 >= 1
 c_49: x23 + x62 + x100 + x132 + x171 >= 1
 c_50: x29 + x57 + x86 + x121 + x161 >= 1
 c_51: x33 + x52 + x81 + x116 + x156 >= 1
 c_52: x20 + x60 + x72 + x107 + x147 >= 1
 c_53: x20 + x60 + x92 + x127 + x167 >= 1
 c_54: x30 + x54 + x83 + x118 + x158 >= 1
 c_55: x25 + x64 + x98 + x129 + x168 >= 1
 c_56: x0 + x40 + x68 + x103 + x141 >= 1
 c_57: x5 + x38 + x94 + x134 + x146 >= 1
 c_58: x5 + x38 + x96 + x136 + x145 >= 1
 c_59: x32 + x53 + x82 + x117 + x157 >= 1
 c_60: x26 + x65 + x99 + x131 + x169 >= 1
 c_61: x29 + x56 + x85 + x120 + x160 >= 1
 c_62: x23 + x62 + x101 + x132 + x171 >= 1
 c_63: x17 + x43 + x75 + x110 + x150 >= 1
 c_64: x17 + x44 + x76 + x111 + x151 >= 1
 c_65: x13 + x52 + x81 + x116 + x156 >= 1
 c_66: x22 + x62 + x100 + x132 + x170 >= 1
 c_67: x11 + x49 + x90 + x125 + x165 >= 1
 c_68: x26 + x65 + x99 + x130 + x169 >= 1
 c_69: x9 + x47 + x89 + x124 + x164 >= 1
 c_70: x3 + x36 + x95 + x134 + x143 >= 1
 c_71: x30 + x55 + x84 + x119 + x159 >= 1
 c_72: x21 + x60 + x91 + x126 + x166 >= 1
 c_73: x0 + x40 + x68 + x103 + x141 >= 1
 c_74: x8 + x43 + x75 + x110 + x150 >= 1
 c_75: x1 + x41 + x69 + x104 + x139 >= 1
 c_76: x12 + x51 + x80 + x115 + x155 >= 1
 c_77: x15 + x54 + x83 + x118 + x158 >= 1
 c_78: x19 + x59 + x74 + x109 + x149 >= 1
 c_79: x19 + x59 + x74 + x109 + x149 >= 1
 c_80: x19 + x59 + x74 + x109 + x149 >= 1
 c_81: x25 + x65 + x98 + x130 + x168 >= 1
 c_82: x4 + x36 + x96 + x135 + x144 >= 1
 c_83: x4 + x37 + x94 + x135 + x144 >= 1
 c_84: x3 + x36 + x95 + x135 + x144 >= 1
 c_85: x17 + x44 + x76 + x111 + x151 >= 1
 c_86: x16 + x45 + x77 + x112 + x152 >= 1
 c_87: x23 + x62 + x101 + x132 + x171 >= 1
 c_88: x33 + x53 + x82 + x117 + x157 >= 1
 c_89: x33 + x53 + x82 + x117 + x157 >= 1
 c_90: x28 + x58 + x88 + x123 + x163 >= 1
 c_91: x14 + x52 + x81 + x116 + x156 >= 1
 c_92: x23 + x63 + x101 + x133 + x172 >= 1
 c_93: x22 + x61 + x100 + x131 + x170 >= 1
 c_94: x20 + x60 + x92 + x127 + x167 >= 1
 c_95: x32 + x54 + x83 + x118 + x158 >= 1
 c_96: x27 + x66 + x88 + x123 + x163 >= 1
 c_97: x18 + x42 + x73 + x108 + x148 >= 1
 c_98: x21 + x61 + x92 + x127 + x167 >= 1
 c_99: x15 + x46 + x78 + x113 + x153 >= 1
 c_100: x12 + x50 + x79 + x114 + x154 >= 1
 c_101: x16 + x45 + x77 + x112 + x152 >= 1
 c_102: x1 + x47 + x70 + x105 + x138 >= 1
 c_103: x12 + x50 + x79 + x114 + x154 >= 1
 c_104: x28 + x46 + x78 + x113 + x153 >= 1
 c_105: x23 + x63 + x101 + x133 + x171 >= 1
 c_106: x15 + x54 + x83 + x118 + x158 >= 1
 c_107: x10 + x48 + x91 + x126 + x166 >= 1
 c_108: x20 + x59 + x72 + x107 + x147 >= 1
 c_109: x30 + x57 + x86 + x121 + x161 >= 1
 c_110: x19 + x58 + x73 + x108 + x148 >= 1
 c_111: x28 + x66 + x88 + x123 + x163 >= 1
 c_112: x20 + x60 + x72 + x107 + x147 >= 1
 c_113: x32 + x56 + x85 + x120 + x160 >= 1
 c_114: x24 + x63 + x97 + x128 + x172 >= 1
 c_115: x3 + x36 + x95 + x134 + x143 >= 1
 c_116: x2 + x35 + x93 + x135 + x142 >= 1
 c_117: x16 + x44 + x76 + x111 + x151 >= 1
 c_118: x24 + x63 + x97 + x128 + x172 >= 1
 c_119: x31 + x55 + x84 + x119 + x159 >= 1
 c_120: x19 + x58 + x73 + x108 + x148 >= 1
 c_121: x31 + x55 + x84 + x119 + x159 >= 1
 c_122: x8 + x40 + x68 + x103 + x141 >= 1
 c_123: x28 + x58 + x88 + x123 + x163 >= 1
 c_124: x12 + x50 + x79 + x114 + x154 >= 1
 c_125: x6 + x39 + x72 + x107 + x147 >= 1
 c_126: x6 + x39 + x72 + x107 + x147 >= 1
 c_127: x33 + x41 + x69 + x104 + x139 >= 1
 c_128: x18 + x58 + x89 + x124 + x164 >= 1
 c_129: x9 + x42 + x74 + x109 + x149 >= 1
 c_130: x2 + x39 + x101 + x127 + x142 >= 1
 c_131: x17 + x43 + x75 + x110 + x150 >= 1
 c_132: x14 + x52 + x81 + x116 + x156 >= 1
 c_133: x16 + x44 + x76 + x111 + x151 >= 1
 c_134: x1 + x48 + x71 + x106 + x138 >= 1
 c_135: x15 + x46 + x78 + x113 + x153 >= 1
 c_136: x24 + x35 + x71 + x106 + x172 >= 1
 c_137: x1 + x48 + x70 + x105 + x138 >= 1
 c_138: x27 + x66 + x88 + x123 + x163 >= 1
 c_139: x11 + x49 + x90 + x125 + x165 >= 1
 c_140: x10 + x48 + x90 + x125 + x165 >= 1
 c_141: x31 + x56 + x85 + x120 + x160 >= 1
 c_142: x2 + x35 + x93 + x128 + x142 >= 1
 c_143: x14 + x34 + x70 + x105 + x138 >= 1
 c_144: x13 + x51 + x80 + x115 + x155 >= 1
 c_145: x13 + x51 + x80 + x115 + x155 >= 1
 c_146: x29 + x56 + x85 + x120 + x160 >= 1
 c_147: x33 + x53 + x82 + x117 + x157 >= 1
 c_148: x22 + x62 + x100 + x132 + x171 >= 1
 c_149: x8 + x43 + x74 + x109 + x149 >= 1
 c_150: x8 + x41 + x69 + x104 + x139 >= 1
 c_151: x30 + x57 + x86 + x121 + x161 >= 1
 c_152: x30 + x57 + x86 + x121 + x161 >= 1
 c_153: x28 + x46 + x78 + x113 + x153 >= 1
 c_154: x13 + x51 + x80 + x115 + x155 >= 1
 c_155: x18 + x57 + x86 + x121 + x161 >= 1
 c_156: x25 + x64 + x98 + x129 + x168 >= 1
 c_157: x25 + x64 + x98 + x129 + x142 >= 1
 c_158: x23 + x63 + x101 + x133 + x172 >= 1
 c_159: x8 + x40 + x68 + x103 + x138 >= 1
 c_160: x17 + x43 + x75 + x110 + x150 >= 1
 c_161: x18 + x66 + x73 + x108 + x148 >= 1
 c_162: x31 + x55 + x84 + x119 + x159 >= 1
 c_163: x10 + x48 + x91 + x126 + x166 >= 1
 c_164: x10 + x49 + x91 + x126 + x166 >= 1
 c_165: x7 + x42 + x73 + x108 + x148 >= 1
 c_166: x20 + x59 + x72 + x107 + x147 >= 1
 c_167: x14 + x41 + x69 + x104 + x139 >= 1
 c_168: x18 + x58 + x89 + x124 + x164 >= 1
 c_169: x1 + x41 + x69 + x104 + x139 >= 1
 c_170: x19 + x59 + x73 + x108 + x148 >= 1
 c_171: x25 + x64 + x98 + x129 + x168 >= 1
 c_172: x16 + x44 + x76 + x111 + x151 >= 1
 c_173: x8 + x40 + x68 + x103 + x141 >= 1
 c_174: x0 + x34 + x67 + x102 + x137 >= 1
 c_175: x6 + x39 + x71 + x106 + x146 >= 1
 c_176: x15 + x42 + x70 + x105 + x140 >= 1
Bounds
 x0 <= 1
 x1 <= 1
 x2 <= 1
 x3 <= 1
 x4 <= 1
 x5 <= 1
 x6 <= 1
 x7 <= 1
 x8 <= 1
 x9 <= 1
 x10 <= 1
 x11 <= 1
 x12 <= 1
 x13 <= 1
 x14 <= 1
 x15 <= 1
 x16 <= 1
 x17 <= 1
 x18 <= 1
 x19 <= 1
 x20 <= 1
 x21 <= 1
 x22 <= 1
 x23 <= 1
 x24 <= 1
 x25 <= 1
 x26 <= 1
 x27 <= 1
 x28 <= 1
 x29 <= 1
 x30 <= 1
 x31 <= 1
 x32 <= 1
 x33 <= 1
 x34 <= 1
 x35 <= 1
 x36 <= 1
 x37 <= 1
 x38 <= 1
 x39 <= 1
 x40 <= 1
 x41 <= 1
 x42 <= 1
 x43 <= 1
 x44 <= 1
 x45 <= 1
 x46 <= 1
 x47 <= 1
 x48 <= 1
 x49 <= 1
 x50 <= 1
 x51 <= 1
 x52 <= 1
 x53 <= 1
 x54 <= 1
 x55 <= 1
 x56 <= 1
 x57 <= 1
 x58 <= 1
 x59 <= 1
 x60 <= 1
 x61 <= 1
 x62 <= 1
 x63 <= 1
 x64 <= 1
 x65 <= 1
 x66 <= 1
 x67 <= 1
 x68 <= 1
 x69 <= 1
 x70 <= 1
 x71 <= 1
 x72 <= 1
 x73 <= 1
 x74 <= 1
 x75 <= 1
 x76 <= 1
 x77 <= 1
 x78 <= 1
 x79 <= 1
 x80 <= 1
 x81 <= 1
 x82 <= 1
 x83 <= 1
 x84 <= 1
 x85 <= 1
 x86 <= 1
 x87 <= 1
 x88 <= 1
 x89 <= 1
 x90 <= 1
 x91 <= 1
 x92 <= 1
 x93 <= 1
 x94 <= 1
 x95 <= 1
 x96 <= 1
 x97 <= 1
 x98 <= 1
 x99 <= 1
 x100 <= 1
 x101 <= 1
 x102 <= 1
 x103 <= 1
 x104 <= 1
 x105 <= 1
 x106 <= 1
 x107 <= 1
 x108 <= 1
 x109 <= 1
 x110 <= 1
 x111 <= 1
 x112 <= 1
 x113 <= 1
 x114 <= 1
 x115 <= 1
 x116 <= 1
 x117 <= 1
 x118 <= 1
 x119 <= 1
 x120 <= 1
 x121 <= 1
 x122 <= 1
 x123 <= 1
 x124 <= 1
 x125 <= 1
 x126 <= 1
 x127 <= 1
 x128 <= 1
 x129 <= 1
 x130 <= 1
 x131 <= 1
 x132 <= 1
 x133 <= 1
 x134 <= 1
 x135 <= 1
 x136 <= 1
 x137 <= 1
 x138 <= 1
 x139 <= 1
 x140 <= 1
 x141 <= 1
 x142 <= 1
 x143 <= 1
 x144 <= 1
 x145 <= 1
 x146 <= 1
 x147 <= 1
 x148 <= 1
 x149 <= 1
 x150 <= 1
 x151 <= 1
 x152 <= 1
 x153 <= 1
 x154 <= 1
 x155 <= 1
 x156 <= 1
 x157 <= 1
 x158 <= 1
 x159 <= 1
 x160 <= 1
 x161 <= 1
 x162 <= 1
 x163 <= 1
 x164 <= 1
 x165 <= 1
 x166 <= 1
 x167 <= 1
 x168 <= 1
 x169 <= 1
 x170 <= 1
 x171 <= 1
 x172 <= 1
Generals
 x0 x1 x2 x3 x4 x5 x6 x7 x8 x9 x10 x11 x12 x13 x14 x15 x16 x17 x18 x19 x20
 x21 x22 x23 x24 x25 x26 x27 x28 x29 x30 x31 x32 x33 x34 x35 x36 x37 x38
 x39 x40 x41 x42 x43 x44 x45 x46 x47 x48 x49 x50 x51 x52 x53 x54 x55 x56
 x57 x58 x59 x60 x61 x62 x63 x64 x65 x66 x67 x68 x69 x70 x71 x72 x73 x74
 x75 x76 x77 x78 x79 x80 x81 x82 x83 x84 x85 x86 x87 x88 x89 x90 x91 x92
 x93 x94 x95 x96 x97 x98 x99 x100 x101 x102 x103 x104 x105 x106 x107 x108
 x109 x110 x111 x112 x113 x114 x115 x116 x117 x118 x119 x120 x121 x122 x123
 x124 x125 x126 x127 x128 x129 x130 x131 x132 x133 x134 x135 x136 x137 x138
 x139 x140 x141 x142 x143 x144 x145 x146 x147 x148 x149 x150 x151 x152 x153
 x154 x155 x156 x157 x158 x159 x160 x161 x162 x163 x164 x165 x166 x167 x168
 x169 x170 x171 x172
End
